NAME : rat195
COMMENT : Rattled grid (Pulleyblank)
TYPE : TSP
DIMENSION : 195
EDGE_WEIGHT_TYPE : EUC_2D
NODE_COORD_SECTION
 1 3 12
 2 17 12
 3 23 9
 4 34 11
 5 47 11
 6 54 12
 7 66 16
 8 75 7
 9 86 6
 10 94 8
 11 107 9
 12 115 14
 13 123 15
 14 3 32
 15 15 32
 16 26 34
 17 33 34
 18 42 34
 19 53 25
 20 64 32
 21 74 32
 22 85 34
 23 95 28
 24 104 25
 25 113 31
 26 125 34
 27 3 48
 28 15 46
 29 26 50
 30 36 54
 31 48 50
 32 54 46
 33 64 54
 34 75 44
 35 88 49
 36 98 50
 37 103 54
 38 115 47
 39 127 49
 40 6 75
 41 15 75
 42 27 73
 43 36 73
 44 47 68
 45 54 72
 46 66 68
 47 74 67
 48 85 65
 49 94 74
 50 107 65
 51 117 65
 52 125 68
 53 6 84
 54 13 95
 55 25 94
 56 37 84
 57 47 87
 58 53 95
 59 63 86
 60 77 93
 61 83 89
 62 94 95
 63 103 92
 64 115 95
 65 123 93
 66 7 114
 67 15 111
 68 24 112
 69 36 108
 70 43 112
 71 56 105
 72 64 112
 73 73 112
 74 86 107
 75 98 108
 76 104 113
 77 117 115
 78 126 109
 79 6 127
 80 17 125
 81 27 134
 82 35 126
 83 44 131
 84 54 132
 85 63 124
 86 77 127
 87 82 134
 88 96 128
 89 103 126
 90 116 130
 91 126 134
 92 7 152
 93 16 147
 94 24 153
 95 35 151
 96 45 154
 97 55 146
 98 63 155
 99 75 151
 100 87 154
 101 93 156
 102 104 151
 103 117 153
 104 127 148
 105 3 164
 106 16 172
 107 25 165
 108 35 175
 109 44 169
 110 53 174
 111 64 168
 112 76 171
 113 87 173
 114 95 174
 115 106 168
 116 114 169
 117 125 169
 118 3 190
 119 16 188
 120 25 195
 121 37 186
 122 44 189
 123 54 194
 124 66 192
 125 77 192
 126 85 188
 127 93 185
 128 106 192
 129 113 193
 130 125 195
 131 5 207
 132 15 213
 133 24 209
 134 33 214
 135 43 206
 136 53 211
 137 64 213
 138 74 212
 139 84 212
 140 94 209
 141 104 215
 142 115 206
 143 127 209
 144 6 229
 145 13 227
 146 26 235
 147 34 225
 148 43 227
 149 55 225
 150 67 229
 151 75 234
 152 87 230
 153 95 235
 154 105 228
 155 117 225
 156 127 230
 157 6 249
 158 15 246
 159 26 255
 160 33 246
 161 47 248
 162 58 252
 163 65 248
 164 73 247
 165 87 249
 166 94 245
 167 104 256
 168 113 246
 169 125 253
 170 5 266
 171 16 274
 172 24 267
 173 37 266
 174 45 267
 175 54 266
 176 67 267
 177 74 265
 178 87 264
 179 95 271
 180 106 264
 181 116 271
 182 127 273
 183 7 287
 184 17 294
 185 23 287
 186 33 284
 187 43 288
 188 53 295
 189 67 288
 190 73 286
 191 87 293
 192 94 284
 193 104 291
 194 114 294
 195 127 290
EOF

Best route saved rat195

=== Best Tour Summary ===
Best start city: 19
Best cost: 2714
Tour order: [19, 20, 21, 22, 23, 24, 25, 38, 37, 36, 35, 34, 33, 32, 31, 30, 29, 28, 27, 26, 13, 14, 15, 16, 17, 18, 5, 4, 3, 2, 1, 0, 6, 7, 8, 9, 10, 11, 12, 50, 51, 49, 48, 47, 46, 45, 44, 43, 42, 41, 40, 39, 52, 53, 54, 55, 56, 57, 70, 71, 72, 73, 74, 75, 76, 77, 64, 63, 62, 61, 60, 59, 58, 69, 68, 67, 66, 65, 78, 79, 80, 81, 82, 83, 84, 85, 86, 87, 88, 89, 90, 103, 102, 101, 100, 99, 98, 97, 96, 95, 94, 93, 92, 91, 104, 105, 106, 107, 108, 109, 110, 111, 112, 113, 126, 125, 124, 123, 122, 121, 120, 119, 118, 117, 130, 131, 132, 133, 146, 147, 148, 149, 150, 151, 152, 165, 164, 163, 162, 161, 160, 159, 158, 171, 170, 169, 156, 157, 145, 144, 143, 134, 135, 136, 137, 138, 139, 140, 153, 154, 155, 142, 141, 128, 127, 129, 116, 115, 114, 167, 166, 179, 180, 181, 194, 193, 192, 191, 190, 189, 188, 187, 186, 185, 184, 183, 182, 172, 173, 174, 175, 176, 177, 178, 168]

=== Summary ===
cost       min/med/max: 2714 / 2830 / 2989
runtime ms min/med/max: 24.94 / 25.32 / 26.27